(set-logic HORN)
(declare-fun state (Int Int Int (Array Int Int) Int Int Int Int Int (Array Int Int) Int Bool Bool Bool Int Int Int Int) Bool)
(assert (forall ((|main@%tmp9.i_0_5| Int) (|main@%tmp6.i_0_5| Int) (|main@%found.0.i_0_3| Int) (|.y.10| (Array Int Int)) (|main@%pos.0.i_0_3| Int) (|main@%i.2.i_0_1| Int) (|.y.11| Int) (|.y.12| Int) (|.y.13| Int) (|main@%shadow.mem.1_0_1| (Array Int Int)) (|main@%tmp2.i_0_5| Int) (|.loc.14| Bool) (|.loc.15| Bool) (|.loc.16| Bool) (|main@%tmp62.i_0| Int) (|main@%tmp59.i_0| Int) (|main@%tmp77.i_0| Int) (|main@%tmp77.i_0_0| Int) (|.x.39| Int) (|.x.40| (Array Int Int)) (|main@%x.0.i_1| Int) (|.x.38| Int) (|.loc.25| Bool) (|.loc.23| Bool) (|.loc.24| Bool) (|.y.22| Int) (|.y.17| Int) (|.y.21| (Array Int Int)) (|.x.37| Int) (|.y.20| Int) (|.y.19| Int) (|.y.18| Int) (|.xtv.1| Int) (|.xtv.2| Int) (|.xtv.3| Int) (|.xpv.1| Int)) (=> (and (and (not .loc.14) (not .loc.15)) (not .loc.16)) (state |main@%tmp9.i_0_5| |main@%tmp6.i_0_5| |main@%found.0.i_0_3| |.y.10| |main@%pos.0.i_0_3| |main@%i.2.i_0_1| |.y.11| |.y.12| |.y.13| |main@%shadow.mem.1_0_1| |main@%tmp2.i_0_5| |.loc.14| |.loc.15| |.loc.16| |main@%tmp62.i_0| |main@%tmp59.i_0| |main@%tmp77.i_0| |main@%tmp77.i_0_0|))))
(assert (forall ((|main@%tmp9.i_0_5| Int) (|main@%tmp6.i_0_5| Int) (|main@%found.0.i_0_3| Int) (|.y.10| (Array Int Int)) (|main@%pos.0.i_0_3| Int) (|main@%i.2.i_0_1| Int) (|.y.11| Int) (|.y.12| Int) (|.y.13| Int) (|main@%shadow.mem.1_0_1| (Array Int Int)) (|main@%tmp2.i_0_5| Int) (|.loc.14| Bool) (|.loc.15| Bool) (|.loc.16| Bool) (|main@%tmp62.i_0| Int) (|main@%tmp59.i_0| Int) (|main@%tmp77.i_0| Int) (|main@%tmp77.i_0_0| Int) (|.x.39| Int) (|.x.40| (Array Int Int)) (|main@%x.0.i_1| Int) (|.x.38| Int) (|.loc.25| Bool) (|.loc.23| Bool) (|.loc.24| Bool) (|.y.22| Int) (|.y.17| Int) (|.y.21| (Array Int Int)) (|.x.37| Int) (|.y.20| Int) (|.y.19| Int) (|.y.18| Int) (|.xtv.1| Int) (|.xtv.2| Int) (|.xtv.3| Int) (|.xpv.1| Int)) (=> (and (state |main@%tmp9.i_0_5| |main@%tmp6.i_0_5| |main@%found.0.i_0_3| |.y.10| |main@%pos.0.i_0_3| |main@%i.2.i_0_1| |.y.11| |.y.12| |.y.13| |main@%shadow.mem.1_0_1| |main@%tmp2.i_0_5| |.loc.14| |.loc.15| |.loc.16| |main@%tmp62.i_0| |main@%tmp59.i_0| |main@%tmp77.i_0| |main@%tmp77.i_0_0|) (let ((.def_28 (not .loc.14))) (let ((.def_29 (not .loc.15))) (let ((.def_31 (not .loc.16))) (let ((.def_45 (<= (- 1) (+ main@%i.2.i_0_1 (* (- 1) main@%tmp2.i_0_5))))) (let ((.def_48 (= main@%x.0.i_1 0))) (let ((.def_62 (<= main@%tmp9.i_0_5 0))) (let ((.def_72 (= (+ main@%pos.0.i_0_3 (* (- 1) main@%x.0.i_1)) (- 1)))) (let ((.def_74 (not .def_62))) (let ((.def_79 (= main@%found.0.i_0_3 .x.39))) (let ((.def_81 (= .y.10 .x.40))) (let ((.def_85 (= main@%tmp6.i_0_5 .x.38))) (let ((.def_89 (not .loc.23))) (let ((.def_92 (not .loc.24))) (let ((.def_101 (not (<= .y.13 main@%pos.0.i_0_3)))) (let ((.def_102 (= .y.11 0))) (let ((.def_114 (not .loc.25))) (let ((.def_162 (not (<= main@%tmp59.i_0 0)))) (let ((.def_163 (or .def_62 .def_162))) (let ((.def_167 (= main@%pos.0.i_0_3 main@%x.0.i_1))) (let ((.def_172 (= main@%tmp9.i_0_5 .x.37))) (let ((.def_191 (<= main@%i.2.i_0_1 main@%found.0.i_0_3))) (let ((.def_202 (= main@%i.2.i_0_1 (select .y.10 main@%tmp59.i_0)))) (let ((.def_222 (= main@%i.2.i_0_1 .y.17))) (let ((.def_246 (<= main@%tmp6.i_0_5 0))) (or (or (or (or (and (or (or (and (or (and .def_31 (and .loc.15 (and .loc.14 (and (not (= main@%found.0.i_0_3 0)) (and (and (and (= main@%pos.0.i_0_3 .x.39) (= main@%shadow.mem.1_0_1 .x.40)) .def_45) .def_48))))) (and (and (and (not (<= main@%found.0.i_0_3 main@%pos.0.i_0_3)) (and (= (+ main@%tmp9.i_0_5 (+ main@%pos.0.i_0_3 (* (- 1) main@%tmp77.i_0))) 0) (and (or (not (<= main@%tmp77.i_0 0)) .def_62) (and (and (and (not (= main@%tmp6.i_0_5 (select .y.10 main@%tmp77.i_0))) (and .def_28 (and .loc.16 .def_29))) .def_72) .def_74)))) .def_79) .def_81)) (and (and (and .def_85 .loc.25) .def_89) .def_92)) (and (= .y.13 .y.22) (and (= .y.12 main@%x.0.i_1) (and (= .y.11 .x.39) (and (= main@%i.2.i_0_1 .x.38) (and (not (and .def_101 .def_102)) (and (= .y.12 .y.17) (and (= .y.10 .y.21) (and (not .def_102) (and (and .def_28 (and .loc.24 (and .loc.23 (and .loc.15 .def_31)))) .def_114)))))))))) (and (= main@%tmp2.i_0_5 .y.22) (and (and (= (+ main@%i.2.i_0_1 (* (- 1) main@%tmp77.i_0)) (- 1)) (and (= (+ main@%tmp9.i_0_5 (+ (* (- 1) main@%tmp59.i_0) main@%tmp77.i_0)) 0) (and (and (= (+ main@%tmp9.i_0_5 (+ main@%i.2.i_0_1 (* (- 1) main@%tmp62.i_0))) 0) (and (or .def_62 (not (<= main@%tmp62.i_0 0))) (and (= .y.21 (store main@%shadow.mem.1_0_1 main@%tmp62.i_0 (select main@%shadow.mem.1_0_1 main@%tmp59.i_0))) (and (= (+ main@%i.2.i_0_1 (* (- 1) .y.17)) (- 1)) (and .def_114 (and .def_79 (and .def_74 (and .loc.24 (and .loc.23 (and .def_31 (and .loc.15 (and .loc.14 (and .def_85 (not .def_45)))))))))))))) .def_163))) .def_167))) .def_172) (and (= main@%i.2.i_0_1 .y.20) (and (= main@%pos.0.i_0_3 .y.17) (and (= main@%tmp6.i_0_5 .x.37) (and (and (= .y.11 .y.19) (and (= .y.18 0) (and .def_114 (and .def_81 (and .def_29 (and .def_89 (and .loc.24 (and .def_31 (and .loc.14 .def_48))))))))) .def_191))))) (and (= .y.13 .y.20) (and (and (= (+ main@%tmp9.i_0_5 (+ main@%pos.0.i_0_3 (* (- 1) main@%tmp59.i_0))) 0) (and (= .y.19 (ite .def_202 main@%pos.0.i_0_3 .y.12)) (and (= .y.18 (ite .def_202 1 .y.11)) (and .def_163 (and .def_101 (and .def_102 (and .def_114 (and .def_81 (and .def_74 (and .def_72 (and .def_28 (and .def_89 (and .loc.24 (and .def_31 (and .loc.15 .def_172))))))))))))))) .def_222))) (and (not (<= .y.17 0)) (and (not (<= .x.38 0)) (and (= .x.39 0) (and .def_114 (and .def_28 (and .def_29 (and .def_92 (and .loc.23 (and .def_31 .def_172)))))))))) (and (= .y.11 .y.18) (and (not .def_191) (and (= (+ main@%tmp6.i_0_5 (+ main@%found.0.i_0_3 (* (- 1) main@%tmp59.i_0))) 0) (and (or .def_162 .def_246) (and (not .def_246) (and (= .x.40 (store .y.10 main@%tmp59.i_0 main@%tmp62.i_0)) (and (= (+ main@%found.0.i_0_3 (* (- 1) .x.39)) (- 1)) (and .def_222 (and .def_167 (and .def_114 (and .def_29 (and .def_92 (and .loc.23 (and .def_31 (and .loc.14 (and .def_85 .def_172)))))))))))))))))))))))))))))))))))))))))) (state |.x.37| |.x.38| |.x.39| |.x.40| |main@%x.0.i_1| |.y.17| |.y.18| |.y.19| |.y.20| |.y.21| |.y.22| |.loc.23| |.loc.24| |.loc.25| |.xtv.1| |.xtv.2| |.xtv.3| |.xpv.1|))))
(assert (forall ((|main@%tmp9.i_0_5| Int) (|main@%tmp6.i_0_5| Int) (|main@%found.0.i_0_3| Int) (|.y.10| (Array Int Int)) (|main@%pos.0.i_0_3| Int) (|main@%i.2.i_0_1| Int) (|.y.11| Int) (|.y.12| Int) (|.y.13| Int) (|main@%shadow.mem.1_0_1| (Array Int Int)) (|main@%tmp2.i_0_5| Int) (|.loc.14| Bool) (|.loc.15| Bool) (|.loc.16| Bool) (|main@%tmp62.i_0| Int) (|main@%tmp59.i_0| Int) (|main@%tmp77.i_0| Int) (|main@%tmp77.i_0_0| Int) (|.x.39| Int) (|.x.40| (Array Int Int)) (|main@%x.0.i_1| Int) (|.x.38| Int) (|.loc.25| Bool) (|.loc.23| Bool) (|.loc.24| Bool) (|.y.22| Int) (|.y.17| Int) (|.y.21| (Array Int Int)) (|.x.37| Int) (|.y.20| Int) (|.y.19| Int) (|.y.18| Int) (|.xtv.1| Int) (|.xtv.2| Int) (|.xtv.3| Int) (|.xpv.1| Int)) (=> (state |main@%tmp9.i_0_5| |main@%tmp6.i_0_5| |main@%found.0.i_0_3| |.y.10| |main@%pos.0.i_0_3| |main@%i.2.i_0_1| |.y.11| |.y.12| |.y.13| |main@%shadow.mem.1_0_1| |main@%tmp2.i_0_5| |.loc.14| |.loc.15| |.loc.16| |main@%tmp62.i_0| |main@%tmp59.i_0| |main@%tmp77.i_0| |main@%tmp77.i_0_0|) (let ((.def_62 (<= main@%tmp9.i_0_5 0))) (not (and (and .loc.16 (and (not .loc.14) (not .loc.15))) (and (not (<= main@%found.0.i_0_3 main@%pos.0.i_0_3)) (and (and (and (not .def_62) (= main@%tmp6.i_0_5 (select .y.10 main@%tmp77.i_0_0))) (or .def_62 (not (<= main@%tmp77.i_0_0 0)))) (= (+ main@%tmp9.i_0_5 (+ main@%pos.0.i_0_3 (* (- 1) main@%tmp77.i_0_0))) 0)))))))))
(check-sat)
